results_rootrelaxation/bin018_090_023.srr.sol
solution status: optimal solution found
objective value:                                   55
_var2958_                          0.0701244835953296 	(obj:4)
_var3000_                         0.00833701160734841 	(obj:4)
_var3006_                          0.0277527956252573 	(obj:3)
_var3064_                          0.0408357834251156 	(obj:3)
_var3071_                          0.0275606865763426 	(obj:5)
_var3149_                           0.131370969620976 	(obj:2)
_var3167_                         0.00924867638452231 	(obj:2)
_var3168_                          0.0950797954030302 	(obj:4)
_var3170_                           0.273583380088272 	(obj:5)
_var3204_                           0.131022008179502 	(obj:5)
_var3225_                           0.166375840107015 	(obj:2)
_var3227_                           0.499732115766277 	(obj:3)
_var3268_                          0.0448966258310582 	(obj:3)
_var3282_                           0.024262821966186 	(obj:3)
_var3283_                           0.198883721937098 	(obj:4)
_var3294_                            0.28844862948159 	(obj:3)
_var3323_                          0.0351000765600257 	(obj:5)
_var3326_                           0.245084493261618 	(obj:5)
_var3348_                           0.491394132086168 	(obj:3)
_var3355_                          0.0349866103105631 	(obj:3)
_var3376_                          0.0313646397367534 	(obj:2)
_var3389_                           0.210929918063611 	(obj:4)
_var3402_                          0.0097049546586615 	(obj:4)
_var3405_                           0.560455725967752 	(obj:2)
_var3407_                           0.154344523033333 	(obj:4)
_var3408_                          0.0781051777062506 	(obj:5)
_var3410_                           0.522166312494774 	(obj:1)
_var3425_                           0.200958374563836 	(obj:5)
_var3428_                           0.246921376891362 	(obj:5)
_var3433_                          0.0609546254059925 	(obj:3)
_var3436_                           0.174766482659069 	(obj:4)
_var3437_                           0.238916843752615 	(obj:3)
_var3438_                          0.0648677402240974 	(obj:2)
_var3447_                            0.34273195334982 	(obj:3)
_var3449_                          0.0511121372442661 	(obj:3)
_var3460_                          0.0508411930945478 	(obj:3)
_var3463_                          0.0538829524569807 	(obj:3)
_var3466_                           0.294900510952294 	(obj:3)
_var3475_                           0.321267346368964 	(obj:4)
_var3476_                          0.0144759934227543 	(obj:5)
_var3477_                           0.238916843752615 	(obj:3)
_var3480_                           0.364435971285356 	(obj:2)
_var3486_                           0.286987629482361 	(obj:2)
_var3492_                           0.104746883601298 	(obj:5)
_var3494_                           0.141846968166135 	(obj:3)
_var3495_                           0.148771741902358 	(obj:1)
_var3497_                           0.113266592057408 	(obj:2)
_var3502_                           0.215853525760517 	(obj:5)
_var3504_                           0.236810148649241 	(obj:5)
_var3511_                           0.451390242189096 	(obj:4)
_var3517_                         0.000977174028363087 	(obj:3)
_var3519_                          0.0537535864782967 	(obj:5)
_var3520_                           0.080096229962457 	(obj:3)
_var3522_                          0.0201410686358476 	(obj:2)
_var3523_                          0.0586650115676883 	(obj:4)
_var3525_                           0.180956318672216 	(obj:4)
_var3527_                          0.0240823989224025 	(obj:5)
_var3530_                           0.187238199409681 	(obj:4)
_var3534_                           0.473118352736661 	(obj:3)
_var3536_                          0.0128367427510411 	(obj:6)
_var3538_                          0.0101112282421218 	(obj:5)
_var3540_                          0.0588183623851206 	(obj:2)
_var3546_                           0.121355919525613 	(obj:2)
_var3547_                           0.182736137404564 	(obj:5)
_var3553_                          0.0946015609637332 	(obj:4)
_var3554_                         0.00354645319959979 	(obj:2)
_var3556_                           0.343860916539596 	(obj:2)
_var3557_                           0.397497649306183 	(obj:2)
_var3562_                           0.117004752797608 	(obj:3)
_var3568_                         0.00181962088545518 	(obj:3)
_var3569_                           0.238916843752614 	(obj:3)
_var3570_                            0.20309574490238 	(obj:4)
_var3571_                          0.0114991790866689 	(obj:3)
_var3577_                          0.0869079410707316 	(obj:4)
_var3582_                           0.234565677024608 	(obj:3)
_var3583_                          0.0875636442979054 	(obj:3)
_var3584_                          0.0812754556535058 	(obj:3)
_var3588_                          0.0488393212458839 	(obj:1)
_var3590_                           0.295927116993685 	(obj:3)
_var3597_                          0.0636779717700199 	(obj:3)
_var3600_                            0.06965840006553 	(obj:3)
_var3601_                           0.121295122714104 	(obj:3)
_var3602_                           0.087465369855111 	(obj:3)
_var3605_                           0.381456276401842 	(obj:1)
_var3606_                           0.252435814637948 	(obj:5)
_var3608_                           0.189282060575157 	(obj:2)
_var3617_                          0.0703668403531048 	(obj:3)
_var3622_                           0.105481798079163 	(obj:2)
_var3623_                         0.000687787967838194 	(obj:5)
_var3626_                           0.297697305866114 	(obj:3)
_var3628_                          0.0307546323820966 	(obj:4)
_var3629_                           0.076992503074804 	(obj:5)
_var3631_                             0.0587804621135 	(obj:2)
_var3632_                          0.0516786443429329 	(obj:3)
_var3634_                         0.00924867638452431 	(obj:4)
_var3635_                           0.163561545770318 	(obj:3)
_var3638_                           0.174626307653935 	(obj:5)
_var3642_                          0.0137657970646041 	(obj:3)
_var3644_                           0.128736595386075 	(obj:4)
_var3645_                           0.109028251278763 	(obj:4)
_var3646_                          0.0634078559953516 	(obj:5)
_var3652_                           0.106382964470538 	(obj:3)
_var3655_                          0.0213876948935628 	(obj:5)
_var3656_                          0.0159166432900789 	(obj:3)
_var3657_                          0.0130382238492767 	(obj:4)
_var3660_                           0.132598291781612 	(obj:3)
_var3661_                           0.188149367584467 	(obj:4)
_var3667_                          0.0674729670686323 	(obj:2)
_var3668_                          0.0845562709527363 	(obj:3)
_var3671_                          0.0878171164963669 	(obj:3)
_var3675_                           0.101154054078257 	(obj:3)
_var3678_                           0.161161394580038 	(obj:4)
_var3679_                           0.186363137398305 	(obj:4)
_var3680_                         0.00924867638452348 	(obj:5)
_var3682_                          0.0538829524569807 	(obj:2)
_var3683_                           0.058780462113499 	(obj:4)
_var3688_                          0.0954678066978197 	(obj:3)
_var3689_                           0.153720353001205 	(obj:5)
_var3691_                           0.103561637398746 	(obj:4)
_var3707_                          0.0419136472857596 	(obj:3)
_var3713_                            0.00658728486651 	(obj:4)
_var3714_                          0.0846865434949295 	(obj:5)
_var3719_                          0.0474255851147904 	(obj:3)
_var3721_                           0.090606834297849 	(obj:3)
_var3722_                          0.0254494755610402 	(obj:2)
